sat
(:max-memory         18.36
 :memory             18.15
 :nlsat-conflicts    2
 :nlsat-decisions    2
 :nlsat-propagations 22
 :nlsat-stages       7
 :num-allocs         87693
 :rlimit-count       27543
 :time               0.02
 :total-time         0.02)
